
Gurobi 9.5.2 (mac64[x86], Python) logging started Wed Sep 21 10:18:39 2022

Set parameter Username
Set parameter LogFile to value "gurobi.log"

Gurobi 9.5.2 (mac64[x86], gurobi_cl) logging started Wed Sep 21 10:49:59 2022

Set parameter Username
Set parameter LogFile to value "gurobi.log"

Gurobi 9.5.2 (mac64[x86], gurobi_cl) logging started Wed Sep 21 15:41:14 2022

Set parameter Username
Set parameter LogFile to value "gurobi.log"

Gurobi 9.5.2 (mac64[x86], gurobi_cl) logging started Wed Sep 21 15:52:19 2022

Set parameter Username
Set parameter LogFile to value "gurobi.log"

Gurobi 9.5.2 (mac64[x86], gurobi_cl) logging started Wed Sep 21 15:55:29 2022

Set parameter LogFile to value "gurobi.log"

Gurobi 9.5.2 (mac64[x86], gurobi_cl) logging started Wed Sep 21 15:56:53 2022

Set parameter Username
Set parameter LogFile to value "gurobi.log"
Academic license - for non-commercial use only - expires 2023-09-15
Using license file /Library/gurobi912/mac64/gurobi.lic
